Gurobi Optimizer version 9.1.2 build v9.1.2rc0 (linux64)
Thread count: 36 physical cores, 72 logical processors, using up to 32 threads
Optimize a model with 12 rows, 57 columns and 590 nonzeros
Model fingerprint: 0xf32eec78
Model has 47 quadratic constraints
Coefficient statistics:
  Matrix range     [2e-05, 3e+00]
  QMatrix range    [1e+00, 1e+00]
  QLMatrix range   [1e+00, 1e+00]
  Objective range  [8e-03, 7e-01]
  Bounds range     [1e+00, 1e+00]
  RHS range        [1e+00, 1e+00]
Presolve removed 9 rows and 0 columns

Continuous model is non-convex -- solving as a MIP.

Presolve removed 9 rows and 0 columns
Presolve time: 0.00s
Presolved: 189 rows, 57 columns, 443 nonzeros
Presolved model has 47 bilinear constraint(s)
Variable types: 57 continuous, 0 integer (0 binary)

Root relaxation: objective -1.743721e+00, 44 iterations, 0.00 seconds

    Nodes    |    Current Node    |     Objective Bounds      |     Work
 Expl Unexpl |  Obj  Depth IntInf | Incumbent    BestBd   Gap | It/Node Time

     0     0   -1.74372    0   38          -   -1.74372      -     -    0s
H    0     0                       0.6147548   -1.74372   384%     -    0s
     0     0   -1.64739    0    1    0.61475   -1.64739   368%     -    0s
H    0     0                      -1.6450460   -1.64739  0.14%     -    0s
     0     0     cutoff    0        -1.64505   -1.64505  0.00%     -    0s

Cutting planes:
  RLT: 25
  BQP: 3

Explored 1 nodes (76 simplex iterations) in 0.01 seconds
Thread count was 32 (of 72 available processors)

Solution count 2: -1.64505 0.614755 
No other solutions better than -1.64505

Optimal solution found (tolerance 1.00e-04)
Best objective -1.645045978473e+00, best bound -1.645045978473e+00, gap 0.0000%

User-callback calls 78, time in user-callback 0.00 sec
Gurobi Optimizer version 9.1.2 build v9.1.2rc0 (linux64)
Thread count: 36 physical cores, 72 logical processors, using up to 32 threads
Optimize a model with 60 rows, 312 columns and 16100 nonzeros
Model fingerprint: 0x37a48ce2
Model has 262 quadratic constraints
Coefficient statistics:
  Matrix range     [4e-07, 7e+00]
  QMatrix range    [1e+00, 1e+00]
  QLMatrix range   [1e+00, 1e+00]
  Objective range  [3e-03, 9e-01]
  Bounds range     [1e+00, 1e+00]
  RHS range        [1e+00, 1e+00]
Presolve removed 14 rows and 0 columns

Continuous model is non-convex -- solving as a MIP.

Presolve removed 14 rows and 0 columns
Presolve time: 0.01s
Presolved: 1082 rows, 312 columns, 13759 nonzeros
Presolved model has 262 bilinear constraint(s)
Variable types: 312 continuous, 0 integer (0 binary)

Root relaxation: objective -1.948924e+01, 338 iterations, 0.02 seconds

    Nodes    |    Current Node    |     Objective Bounds      |     Work
 Expl Unexpl |  Obj  Depth IntInf | Incumbent    BestBd   Gap | It/Node Time

     0     0  -19.48924    0  197          -  -19.48924      -     -    0s
     0     0  -18.71602    0   26          -  -18.71602      -     -    0s
     0     0  -18.68838    0   51          -  -18.68838      -     -    0s
     0     0  -18.64146    0   54          -  -18.64146      -     -    0s
     0     0  -18.64018    0   54          -  -18.64018      -     -    0s
     0     0  -18.62948    0   54          -  -18.62948      -     -    0s
     0     0  -18.62779    0   57          -  -18.62779      -     -    0s
     0     0  -18.62548    0   57          -  -18.62548      -     -    0s
     0     0  -18.62456    0   57          -  -18.62456      -     -    0s
     0     0  -18.62108    0   57          -  -18.62108      -     -    0s
     0     0  -18.62063    0   57          -  -18.62063      -     -    0s
     0     0  -18.62026    0   57          -  -18.62026      -     -    0s
     0     0  -18.62004    0   57          -  -18.62004      -     -    0s
     0     0  -18.61976    0   57          -  -18.61976      -     -    0s
H    0     0                     -17.7305901  -18.61976  5.01%     -    0s
     0     2  -18.61976    0   57  -17.73059  -18.61976  5.01%     -    0s
* 1175   793              41     -17.7305903  -18.25627  2.96%  40.3    1s
* 1364   909              43     -17.7309663  -18.25627  2.96%  37.7    1s
* 1443   973              44     -17.7309763  -18.23173  2.82%  37.2    1s
* 1444   973              44     -17.7309764  -18.23173  2.82%  37.2    1s
* 1520  1040              65     -17.7314323  -18.23173  2.82%  36.7    1s
* 1521  1040              65     -17.7315694  -18.23173  2.82%  36.7    1s
* 1542  1040              61     -17.7316733  -18.23173  2.82%  36.5    1s
* 1543  1040              61     -17.7317881  -18.23173  2.82%  36.5    1s
* 1591  1040              51     -17.7559138  -18.23173  2.68%  36.1    1s
* 1592  1040              50     -17.7559148  -18.23173  2.68%  36.1    1s
* 1602  1040              63     -17.7582231  -18.23173  2.67%  35.9    1s
* 1925  1214              57     -17.7729636  -18.23173  2.58%  34.5    1s
* 1926  1214              57     -17.7729638  -18.23173  2.58%  34.5    1s
* 2032  1276              57     -17.7736914  -18.23173  2.58%  34.3    1s
* 2452  1677              64     -17.7756902  -18.21967  2.50%  32.8    1s
* 2596  1792              63     -17.7758254  -18.21967  2.50%  32.3    2s
* 2620  1792              55     -17.8117462  -18.21967  2.29%  32.1    2s
* 5923  1314              87     -17.8232092  -18.21967  2.22%  36.7    3s
* 5924  1255              87     -17.8232507  -18.21967  2.22%  36.7    3s
* 6105  1166              87     -17.8232516  -18.21967  2.22%  36.5    3s
* 6633  1304              60     -17.8354008  -18.21967  2.15%  36.4    4s
* 6634  1304              60     -17.8354010  -18.21967  2.15%  36.4    4s
* 7508  1616              74     -17.8441282  -18.21967  2.10%  36.0    4s
* 7509  1616              74     -17.8442287  -18.21967  2.10%  36.0    4s
* 8356  1841              65     -17.8517582  -18.21967  2.06%  36.2    4s
  9242  1898  -17.91940   48   18  -17.85176  -18.21967  2.06%  35.9    5s
*10134  1900              69     -17.9044888  -18.21967  1.76%  34.9    5s
*10136  1900              70     -17.9044896  -18.21967  1.76%  34.9    5s
*10771  1740              78     -17.9196479  -18.21967  1.67%  34.6    5s
*10774  1740              79     -17.9197158  -18.21967  1.67%  34.5    5s
*17822  1814              66     -17.9197159  -17.93059  0.06%  29.3    6s
*18055  1814              65     -17.9197652  -17.93059  0.06%  29.1    6s
*18059  1814              64     -17.9197692  -17.93059  0.06%  29.1    6s
*18600  1814              64     -17.9198504  -17.93059  0.06%  28.5    6s
*19154  1806              69     -17.9198534  -17.92750  0.04%  27.8    7s
*19157  1806              69     -17.9198539  -17.92750  0.04%  27.8    7s
*19164  1806              69     -17.9198541  -17.92750  0.04%  27.8    7s
*19168  1806              68     -17.9198564  -17.92750  0.04%  27.8    7s
*19169  1806              68     -17.9198566  -17.92750  0.04%  27.8    7s
*19171  1806              68     -17.9198567  -17.92750  0.04%  27.8    7s
*19172  1806              68     -17.9198571  -17.92750  0.04%  27.8    7s
*19228  1806              65     -17.9199067  -17.92750  0.04%  27.7    7s
*19381  1806              64     -17.9199576  -17.92750  0.04%  27.6    7s
*19384  1806              62     -17.9199608  -17.92750  0.04%  27.6    7s
*19560  1783              59     -17.9199884  -17.92693  0.04%  27.4    7s
*19561  1783              59     -17.9199940  -17.92693  0.04%  27.4    7s
*19727  1783              66     -17.9199956  -17.92485  0.03%  27.3    7s
*20262  1783              68     -17.9201111  -17.92480  0.03%  26.8    7s
*20263  1783              68     -17.9201138  -17.92480  0.03%  26.8    7s
*20264  1783              66     -17.9201171  -17.92480  0.03%  26.8    7s
*21661  1860              66     -17.9201686  -17.92285  0.01%  25.6    7s
*21664  1860              66     -17.9201690  -17.92285  0.01%  25.6    7s
*21668  1860              66     -17.9201693  -17.92285  0.01%  25.6    7s
*21692  1860              74     -17.9202565  -17.92285  0.01%  25.6    7s
*21695  1860              74     -17.9202788  -17.92285  0.01%  25.6    7s
*21696  1860              74     -17.9202796  -17.92285  0.01%  25.6    7s
*22414  1850              71     -17.9203532  -17.92282  0.01%  25.0    7s
*22415  1850              71     -17.9203626  -17.92282  0.01%  25.0    7s
*22422  1850              72     -17.9203646  -17.92282  0.01%  25.0    7s
*22535  1850              70     -17.9203836  -17.92259  0.01%  24.9    7s
*23576  1850              69     -17.9204335  -17.92259  0.01%  24.1    7s

Explored 25174 nodes (579246 simplex iterations) in 7.73 seconds
Thread count was 32 (of 72 available processors)

Solution count 10: -17.9204 -17.9204 -17.9204 ... -17.9201

Optimal solution found (tolerance 1.00e-04)
Best objective -1.792043350287e+01, best bound -1.792180957136e+01, gap 0.0077%

User-callback calls 51397, time in user-callback 0.01 sec



objective value: -17.920433502865627
objective bound: -17.92180957136351
x_opt: [0.9900609031039549, 1.0, 0.0, 0.3819144497848658, 0.0, 0.0, 1.0, 0.0, 0.0, 0.0, 1.0, 0.0, 1.0, 1.0, 0.17198493533224535, 1.0, 0.0, 1.0, 0.0, 0.0, 0.9446890113765929, 0.681835659407911, 0.0, 0.8015878402158269, 0.0, 0.7512247421312293, 0.0, 1.0, 0.0, 0.0, 0.9999989284003555, 0.8502572073953792, 0.0, 0.3957020290259949, 1.0, 1.0, 0.05824012152868236, 1.0, 0.0, 0.8402046007948768, 1.0, 0.0, 1.0, 0.0, 0.0, 0.08449457730157894, 0.8853543916646592, 0.0, 1.0, 0.15783502388794468]
GUROBI solution time: 7.726362228393555




